NAME : portcgen-15-30
COMMENT : portcgen N=15, seed=30
TYPE : TSP
DIMENSION : 15
EDGE_WEIGHT_TYPE : EUC_2D
NODE_COORD_SECTION
1 308076 322556
2 -488550 -462287
3 118572 -416169
4 -77090 -572654
5 545025 469744
6 371506 -152049
7 -241165 178735
8 227489 41295
9 108287 -42600
10 -1319 -431941
11 -16929 124660
12 -302095 749350
13 -93277 -179459
14 253337 196314
15 -52296 -291429
